NAME 
ROWS
 N  OBJ
 L  R0      
 E  R1      
 E  R2      
 E  R3      
 E  R4      
 E  R5      
 E  R6      
 E  R7      
 E  R8      
 E  R9      
 E  R10     
 E  R11     
 E  R12     
 E  R13     
 E  R14     
 E  R15     
 E  R16     
 E  R17     
 E  R18     
 E  R19     
 E  R20     
 E  R21     
 E  R22     
 E  R23     
 E  R24     
 E  R25     
COLUMNS
    MARKER    'MARKER'                 'INTORG'
    I0(8)     OBJ       -113
    I0(8)     R0        117
    I0(8)     R3        19
    I0(8)     R4        17
    I0(8)     R7        11
    I0(8)     R8        14
    I0(8)     R9        16
    I0(8)     R10       17
    I0(8)     R25       1
    I1(9)     OBJ       -129
    I1(9)     R0        -131
    I1(9)     R1        7
    I1(9)     R2        8
    I1(9)     R3        16
    I1(9)     R5        9
    I1(9)     R6        9
    I1(9)     R7        4
    I1(9)     R9        19
    I1(9)     R25       1
    I2(8)     OBJ       -8
    I2(8)     R0        4
    I2(8)     R1        17
    I2(8)     R3        6
    I2(8)     R4        16
    I2(8)     R6        16
    I2(8)     R7        2
    I2(8)     R10       11
    I2(8)     R25       1
    I3(11)    OBJ       51
    I3(11)    R0        -189
    I3(11)    R1        1
    I3(11)    R2        17
    I3(11)    R3        3
    I3(11)    R4        11
    I3(11)    R6        16
    I3(11)    R7        6
    I3(11)    R8        2
    I3(11)    R9        18
    I3(11)    R10       14
    I3(11)    R25       1
    I4(9)     OBJ       150
    I4(9)     R0        131
    I4(9)     R1        12
    I4(9)     R3        15
    I4(9)     R4        14
    I4(9)     R6        5
    I4(9)     R7        2
    I4(9)     R8        18
    I4(9)     R10       9
    I4(9)     R25       1
    I5(8)     OBJ       148
    I5(8)     R0        106
    I5(8)     R2        8
    I5(8)     R3        1
    I5(8)     R4        17
    I5(8)     R7        10
    I5(8)     R9        14
    I5(8)     R10       18
    I5(8)     R25       1
    I6(8)     OBJ       57
    I6(8)     R0        77
    I6(8)     R1        5
    I6(8)     R2        11
    I6(8)     R4        2
    I6(8)     R7        12
    I6(8)     R9        2
    I6(8)     R10       9
    I6(8)     R25       1
    I7(9)     OBJ       -72
    I7(9)     R0        82
    I7(9)     R3        11
    I7(9)     R4        -1
    I7(9)     R5        16
    I7(9)     R6        4
    I7(9)     R7        3
    I7(9)     R8        5
    I7(9)     R9        11
    I7(9)     R25       1
    I8(9)     OBJ       145
    I8(9)     R0        -100
    I8(9)     R1        9
    I8(9)     R3        10
    I8(9)     R4        11
    I8(9)     R6        16
    I8(9)     R8        13
    I8(9)     R9        6
    I8(9)     R10       18
    I8(9)     R25       1
    I9(10)    OBJ       -155
    I9(10)    R0        -193
    I9(10)    R1        2
    I9(10)    R2        7
    I9(10)    R3        9
    I9(10)    R4        11
    I9(10)    R6        16
    I9(10)    R8        18
    I9(10)    R9        5
    I9(10)    R10       15
    I9(10)    R25       1
    MARKER    'MARKER'                 'INTEND'
    C10(12)   OBJ       -2
    C10(12)   R0        6
    C10(12)   R5        12
    C10(12)   R6        18
    C10(12)   R8        3
    C10(12)   R10       3
    C10(12)   R11       11
    C10(12)   R13       9
    C10(12)   R15       14
    C10(12)   R19       16
    C10(12)   R21       9
    C10(12)   R23       11
    C10(12)   R24       17
    C11(18)   OBJ       -1
    C11(18)   R0        1
    C11(18)   R1        14
    C11(18)   R2        2
    C11(18)   R3        7
    C11(18)   R4        17
    C11(18)   R5        12
    C11(18)   R7        -1
    C11(18)   R8        11
    C11(18)   R9        12
    C11(18)   R10       9
    C11(18)   R12       5
    C11(18)   R16       -1
    C11(18)   R17       10
    C11(18)   R18       15
    C11(18)   R20       17
    C11(18)   R21       13
    C11(18)   R22       9
    C11(18)   R23       3
    C12(20)   OBJ       -6
    C12(20)   R0        7
    C12(20)   R1        19
    C12(20)   R2        12
    C12(20)   R3        -1
    C12(20)   R4        16
    C12(20)   R5        5
    C12(20)   R6        2
    C12(20)   R9        13
    C12(20)   R10       12
    C12(20)   R11       7
    C12(20)   R12       15
    C12(20)   R13       6
    C12(20)   R15       11
    C12(20)   R16       14
    C12(20)   R17       11
    C12(20)   R18       3
    C12(20)   R20       3
    C12(20)   R21       -1
    C12(20)   R22       19
    C12(20)   R24       11
    C13(16)   OBJ       3
    C13(16)   R0        -10
    C13(16)   R2        12
    C13(16)   R3        18
    C13(16)   R6        8
    C13(16)   R7        14
    C13(16)   R8        13
    C13(16)   R9        9
    C13(16)   R10       14
    C13(16)   R11       7
    C13(16)   R15       5
    C13(16)   R16       1
    C13(16)   R17       11
    C13(16)   R19       19
    C13(16)   R20       11
    C13(16)   R22       18
    C13(16)   R23       -1
    C14(16)   OBJ       5
    C14(16)   R0        3
    C14(16)   R1        -1
    C14(16)   R2        12
    C14(16)   R3        -1
    C14(16)   R6        10
    C14(16)   R7        4
    C14(16)   R8        2
    C14(16)   R12       6
    C14(16)   R13       19
    C14(16)   R14       9
    C14(16)   R17       9
    C14(16)   R18       19
    C14(16)   R19       -1
    C14(16)   R21       13
    C14(16)   R22       12
    C14(16)   R23       11
    C15(17)   R0        8
    C15(17)   R2        6
    C15(17)   R3        19
    C15(17)   R4        7
    C15(17)   R6        -1
    C15(17)   R7        15
    C15(17)   R8        -1
    C15(17)   R10       6
    C15(17)   R11       6
    C15(17)   R14       19
    C15(17)   R15       10
    C15(17)   R16       13
    C15(17)   R17       2
    C15(17)   R18       17
    C15(17)   R20       6
    C15(17)   R22       5
    C15(17)   R24       7
    C16(18)   OBJ       -1
    C16(18)   R0        -9
    C16(18)   R1        7
    C16(18)   R2        17
    C16(18)   R3        2
    C16(18)   R5        11
    C16(18)   R7        6
    C16(18)   R8        15
    C16(18)   R10       1
    C16(18)   R12       13
    C16(18)   R14       9
    C16(18)   R15       1
    C16(18)   R17       15
    C16(18)   R18       14
    C16(18)   R19       2
    C16(18)   R21       15
    C16(18)   R22       8
    C16(18)   R23       17
    C16(18)   R24       4
    C17(11)   OBJ       -6
    C17(11)   R0        1
    C17(11)   R1        7
    C17(11)   R2        -1
    C17(11)   R5        14
    C17(11)   R12       13
    C17(11)   R14       9
    C17(11)   R15       6
    C17(11)   R16       10
    C17(11)   R19       17
    C17(11)   R21       14
    C17(11)   R24       -1
    C18(18)   OBJ       8
    C18(18)   R0        4
    C18(18)   R2        3
    C18(18)   R3        10
    C18(18)   R5        13
    C18(18)   R7        5
    C18(18)   R9        3
    C18(18)   R10       9
    C18(18)   R11       2
    C18(18)   R12       11
    C18(18)   R13       11
    C18(18)   R14       18
    C18(18)   R15       12
    C18(18)   R16       2
    C18(18)   R18       17
    C18(18)   R19       17
    C18(18)   R20       13
    C18(18)   R22       -1
    C18(18)   R23       19
    C19(15)   OBJ       -1
    C19(15)   R0        5
    C19(15)   R1        1
    C19(15)   R3        2
    C19(15)   R4        13
    C19(15)   R6        1
    C19(15)   R7        18
    C19(15)   R9        8
    C19(15)   R10       1
    C19(15)   R12       6
    C19(15)   R13       7
    C19(15)   R15       6
    C19(15)   R16       9
    C19(15)   R17       18
    C19(15)   R20       19
    C19(15)   R22       5
    C20(14)   OBJ       8
    C20(14)   R0        5
    C20(14)   R2        19
    C20(14)   R4        12
    C20(14)   R9        18
    C20(14)   R10       -1
    C20(14)   R14       5
    C20(14)   R15       13
    C20(14)   R17       7
    C20(14)   R18       -1
    C20(14)   R20       9
    C20(14)   R21       15
    C20(14)   R22       1
    C20(14)   R23       16
    C20(14)   R24       3
    C21(21)   OBJ       3
    C21(21)   R0        7
    C21(21)   R2        16
    C21(21)   R3        3
    C21(21)   R4        -1
    C21(21)   R5        11
    C21(21)   R6        11
    C21(21)   R7        9
    C21(21)   R8        14
    C21(21)   R9        12
    C21(21)   R10       11
    C21(21)   R11       4
    C21(21)   R12       18
    C21(21)   R13       3
    C21(21)   R14       15
    C21(21)   R16       15
    C21(21)   R17       -1
    C21(21)   R18       5
    C21(21)   R19       19
    C21(21)   R20       3
    C21(21)   R22       17
    C21(21)   R24       9
    C22(13)   OBJ       8
    C22(13)   R0        -5
    C22(13)   R2        4
    C22(13)   R3        1
    C22(13)   R6        4
    C22(13)   R7        7
    C22(13)   R8        8
    C22(13)   R12       16
    C22(13)   R13       15
    C22(13)   R16       7
    C22(13)   R19       15
    C22(13)   R21       12
    C22(13)   R22       18
    C22(13)   R23       -1
    C23(19)   R0        1
    C23(19)   R1        18
    C23(19)   R2        12
    C23(19)   R3        3
    C23(19)   R4        1
    C23(19)   R5        9
    C23(19)   R6        2
    C23(19)   R7        13
    C23(19)   R8        3
    C23(19)   R9        10
    C23(19)   R10       17
    C23(19)   R11       13
    C23(19)   R12       17
    C23(19)   R14       10
    C23(19)   R15       17
    C23(19)   R16       19
    C23(19)   R18       15
    C23(19)   R21       10
    C23(19)   R22       7
    C24(20)   OBJ       4
    C24(20)   R0        2
    C24(20)   R1        13
    C24(20)   R3        3
    C24(20)   R4        1
    C24(20)   R6        17
    C24(20)   R8        1
    C24(20)   R10       1
    C24(20)   R11       2
    C24(20)   R12       9
    C24(20)   R13       2
    C24(20)   R14       -1
    C24(20)   R15       5
    C24(20)   R17       6
    C24(20)   R18       14
    C24(20)   R19       2
    C24(20)   R20       18
    C24(20)   R21       15
    C24(20)   R22       7
    C24(20)   R23       12
    C24(20)   R24       5
    C25(1)    R1        1
    C26(1)    R2        1
    C27(1)    R3        1
    C28(1)    R4        1
    C29(1)    R5        1
    C30(1)    R6        1
    C31(1)    R7        1
    C32(1)    R8        1
    C33(1)    R9        1
    C34(1)    R10       1
    C35(1)    R11       1
    C36(1)    R12       1
    C37(1)    R13       1
    C38(1)    R14       1
    C39(1)    R15       1
    C40(1)    R16       1
    C41(1)    R17       1
    C42(1)    R18       1
    C43(1)    R19       1
    C44(1)    R20       1
    C45(1)    R21       1
    C46(1)    R22       1
    C47(1)    R23       1
    C48(1)    R24       1
    C49(1)    R25       1
RHS
    RHS1      R0        -1.9334714003944754e+02
    RHS1      R1        77
    RHS1      R2        91
    RHS1      R3        88
    RHS1      R4        99
    RHS1      R5        87
    RHS1      R6        70
    RHS1      R7        68
    RHS1      R8        82
    RHS1      R9        50
    RHS1      R10       78
    RHS1      R11       55
    RHS1      R12       66
    RHS1      R13       75
    RHS1      R14       55
    RHS1      R15       96
    RHS1      R16       90
    RHS1      R17       63
    RHS1      R18       94
    RHS1      R19       88
    RHS1      R20       99
    RHS1      R21       64
    RHS1      R22       98
    RHS1      R23       60
    RHS1      R24       54
    RHS1      R25       3
BOUNDS
 UP BND1      I0(8)     1
 UP BND1      I1(9)     1
 UP BND1      I2(8)     1
 UP BND1      I3(11)    1
 UP BND1      I4(9)     1
 UP BND1      I5(8)     1
 UP BND1      I6(8)     1
 UP BND1      I7(9)     1
 UP BND1      I8(9)     1
 UP BND1      I9(10)    1
ENDATA
